c   #vars: 112   #clauses: 530   #literals: 1468
c 
p cnf 112 530
-1 -2 0
-3 -4 0
29 -58 62 63 0
46 52 53 -92 0
-7 -8 0
-9 -10 0
-11 -12 0
-15 -16 0
-17 -18 0
-19 -20 0
-21 -22 0
-23 -24 0
27 28 96 97 0
40 41 96 97 0
-25 -26 0
-30 -31 0
-32 -33 0
-34 -35 0
-36 -37 0
-38 -39 0
-40 -41 0
-42 -43 0
-44 -45 0
-1 56 100 101 0
51 73 74 -94 0
-47 -48 0
-49 -50 0
59 -96 110 111 0
34 35 88 89 0
-52 -53 0
-54 -55 0
-57 -58 0
9 10 66 -108 0
77 78 106 107 0
-60 -61 0
-62 -63 0
-64 -65 0
-67 -68 0
-69 -70 0
-71 -72 0
-73 -74 0
6 -64 79 -89 0
-75 -76 0
25 26 49 50 0
-4 6 -15 79 0
-77 -78 0
-80 -81 0
-82 -83 0
15 16 36 37 0
15 16 64 65 0
-84 -85 0
-86 -87 0
-88 -89 0
-90 -91 0
-92 -93 0
-94 -95 0
9 10 60 61 0
-96 -97 0
-98 -99 0
-100 -101 0
60 61 90 91 0
15 16 60 61 0
-102 -103 0
59 96 97 -110 0
25 26 71 72 0
38 39 102 103 0
-104 -105 0
-106 -107 0
29 -63 102 103 0
-110 -111 0
3 4 5 -28 0
13 21 22 -98 0
-1 -38 0
-2 -39 0
23 24 102 103 0
29 47 48 -58 0
-2 -56 0
30 31 75 76 0
-1 -67 0
-2 -68 0
9 10 38 39 0
-1 -80 0
-2 -81 0
-3 -5 0
29 -48 62 63 0
-4 5 75 76 0
-3 -6 0
46 52 53 -69 0
-3 -32 0
-4 -33 0
21 22 36 37 0
-3 -34 0
-4 -35 0
7 8 34 35 0
-3 -49 0
-4 -50 0
-3 -77 0
-4 -78 0
32 33 44 45 0
-5 -27 0
29 57 58 -103 0
5 -68 75 76 0
13 -73 98 99 0
5 -28 75 76 0
-5 -67 0
29 57 58 -63 0
1 2 38 39 0
-5 -75 0
29 -48 57 58 0
21 22 38 39 0
46 69 70 -92 0
59 -77 96 97 0
-6 -88 0
46 -52 69 70 0
19 20 94 95 0
42 43 94 95 0
13 -21 73 74 0
-7 -34 0
-8 -35 0
11 12 57 58 0
-7 -49 0
-8 -50 0
5 27 28 -76 0
-7 -69 0
-8 -70 0
11 12 21 22 0
-7 -73 0
-8 -74 0
6 -15 79 -89 0
-7 -82 0
-8 -83 0
1 2 56 -71 0
17 18 60 61 0
-9 -38 0
-10 -39 0
75 76 106 107 0
59 -77 110 111 0
-10 -51 0
60 61 71 72 0
-9 -60 0
-10 -61 0
60 61 -86 112 0
-10 -66 0
27 28 98 99 0
-9 -67 0
-10 -68 0
-4 6 -64 79 0
86 87 -102 112 0
15 16 17 18 0
-9 -88 0
-10 -89 0
17 18 100 101 0
-9 -102 0
-10 -103 0
-6 64 65 79 0
-11 -21 0
-12 -22 0
-11 -57 0
-12 -58 0
-11 -64 0
-12 -65 0
23 24 57 58 0
-11 -88 0
-12 -89 0
23 24 84 85 0
-11 -92 0
-12 -93 0
-13 -22 0
13 -21 98 99 0
14 -96 106 107 0
-13 -74 0
15 16 110 111 0
-108 -109 0
-13 -99 0
62 63 64 65 0
14 92 93 -106 0
15 16 -64 79 0
-14 -93 0
29 62 63 -103 0
-6 15 16 79 0
-14 -97 0
54 55 73 74 0
-14 -107 0
27 28 108 109 0
-15 -17 0
-16 -18 0
19 20 42 43 0
-15 -36 0
-16 -37 0
27 28 47 48 0
-15 -60 0
-16 -61 0
7 8 82 83 0
-15 -64 0
-16 -65 0
-16 -79 0
-15 -92 0
-16 -93 0
13 21 22 -73 0
-15 -110 0
-16 -111 0
-17 -19 0
-18 -20 0
32 33 73 74 0
-17 -38 0
-18 -39 0
71 72 94 95 0
-17 -60 0
-18 -61 0
34 35 102 103 0
-18 -66 0
69 70 98 99 0
-17 -84 0
-18 -85 0
100 101 104 105 0
-17 -100 0
-18 -101 0
32 33 40 41 0
-17 -102 0
-18 -103 0
3 4 5 -68 0
-19 -42 0
-20 -43 0
88 89 108 109 0
-19 -62 0
-20 -63 0
-9 17 18 66 0
-19 -90 0
-20 -91 0
75 76 104 105 0
-19 -94 0
-20 -95 0
56 71 72 -100 0
-21 -36 0
-22 -37 0
34 35 54 55 0
-21 -38 0
-22 -39 0
62 63 69 70 0
-21 -82 0
-22 -83 0
7 8 49 50 0
-23 -40 0
-24 -41 0
19 20 62 63 0
-23 -57 0
-24 -58 0
3 4 49 50 0
-23 -73 0
-24 -74 0
-23 -84 0
-24 -85 0
49 50 80 81 0
-23 -96 0
-24 -97 0
44 45 49 50 0
-23 -102 0
-24 -103 0
60 61 88 89 0
-27 -28 0
9 10 88 89 0
47 48 88 89 0
-25 -49 0
-26 -50 0
36 37 64 65 0
-25 -62 0
-26 -63 0
17 18 38 39 0
-25 -71 0
-26 -72 0
-4 6 88 89 0
-25 -82 0
-26 -83 0
-27 -30 0
-28 -31 0
-27 -47 0
-28 -48 0
30 31 67 68 0
27 28 30 31 0
-27 -96 0
-28 -97 0
17 18 66 -108 0
-27 -98 0
-28 -99 0
3 4 34 35 0
-27 -108 0
-28 -109 0
-29 -47 0
-1 56 71 72 0
-29 -57 0
9 10 102 103 0
-29 -62 0
29 47 48 -103 0
46 -52 92 93 0
3 4 5 -76 0
-29 -102 0
40 41 86 87 0
-30 -32 0
-31 -33 0
-30 -44 0
-31 -45 0
23 24 40 41 0
-30 -54 0
-31 -55 0
-30 -67 0
-31 -68 0
40 41 80 81 0
-30 -75 0
-31 -76 0
-30 -104 0
-31 -105 0
-32 -40 0
-33 -41 0
-32 -44 0
-33 -45 0
42 43 57 58 0
-32 -52 0
-33 -53 0
-32 -73 0
-33 -74 0
36 37 86 87 0
-32 -82 0
-33 -83 0
11 12 92 93 0
-32 -86 0
-33 -87 0
25 26 82 83 0
-34 -54 0
-35 -55 0
25 26 62 63 0
-34 -88 0
-35 -89 0
14 -92 96 97 0
-34 -102 0
-35 -103 0
42 43 110 111 0
-36 -57 0
-37 -58 0
42 43 98 99 0
-36 -64 0
-37 -65 0
3 4 32 33 0
-36 -86 0
-37 -87 0
-38 -102 0
-39 -103 0
90 91 106 107 0
-38 -104 0
-39 -105 0
29 -58 102 103 0
-38 -108 0
-39 -109 0
30 31 54 55 0
-40 -75 0
-41 -76 0
19 20 90 91 0
-40 -80 0
-41 -81 0
52 53 92 93 0
-40 -86 0
-41 -87 0
54 55 100 101 0
-40 -96 0
-41 -97 0
54 55 86 87 0
32 33 86 87 0
3 4 6 -89 0
-42 -57 0
-43 -58 0
6 -79 88 89 0
-42 -94 0
-43 -95 0
7 8 73 74 0
-42 -98 0
-43 -99 0
94 95 96 97 0
-42 -110 0
-43 -111 0
1 2 56 -100 0
49 50 96 97 0
-44 -49 0
-45 -50 0
73 74 86 87 0
-44 -90 0
-45 -91 0
23 24 96 97 0
-9 51 73 74 0
-46 -53 0
40 41 75 76 0
51 -73 94 95 0
-46 -70 0
17 18 19 20 0
-9 51 94 95 0
-46 -93 0
52 53 84 85 0
-47 -88 0
-48 -89 0
54 55 94 95 0
7 8 69 70 0
3 4 6 -79 0
9 10 51 -94 0
-47 -104 0
-48 -105 0
44 45 90 91 0
-49 -80 0
-50 -81 0
11 12 64 65 0
-49 -96 0
-50 -97 0
9 10 67 68 0
59 77 78 -110 0
-51 -74 0
29 -48 102 103 0
59 77 78 -96 0
-51 -95 0
30 31 104 105 0
60 61 -102 112 0
-52 -84 0
-53 -85 0
36 37 57 58 0
-52 -92 0
-53 -93 0
-52 -106 0
-53 -107 0
-54 -73 0
-55 -74 0
-54 -86 0
-55 -87 0
82 83 100 101 0
-54 -94 0
-55 -95 0
47 48 104 105 0
-54 -100 0
-55 -101 0
56 -71 100 101 0
1 2 67 68 0
-56 -72 0
84 85 88 89 0
-56 -101 0
38 39 104 105 0
9 10 -17 66 0
-59 -78 0
30 31 32 33 0
-17 66 108 109 0
-59 -97 0
17 18 84 85 0
-9 66 108 109 0
-59 -111 0
13 73 74 -98 0
14 92 93 -96 0
71 72 80 81 0
-60 -71 0
-61 -72 0
71 72 110 111 0
-60 -88 0
-61 -89 0
5 27 28 -68 0
-60 -90 0
-61 -91 0
5 67 68 -76 0
-61 -112 0
1 2 80 81 0
-62 -64 0
-63 -65 0
-62 -69 0
-63 -70 0
17 18 102 103 0
-65 -79 0
80 81 82 83 0
-64 -100 0
-65 -101 0
-66 -109 0
23 24 73 74 0
-69 -98 0
-70 -99 0
-15 64 65 79 0
-71 -77 0
-72 -78 0
-71 -80 0
-72 -81 0
64 65 100 101 0
-71 -94 0
-72 -95 0
-71 -110 0
-72 -111 0
9 10 51 -73 0
-73 -86 0
-74 -87 0
71 72 77 78 0
-60 102 103 112 0
-60 86 87 112 0
52 53 106 107 0
-75 -104 0
-76 -105 0
15 16 92 93 0
-75 -106 0
-76 -107 0
38 39 108 109 0
46 -69 92 93 0
21 22 82 83 0
-77 -106 0
-78 -107 0
32 33 52 53 0
-80 -82 0
-81 -83 0
-4 5 27 28 0
-82 -100 0
-83 -101 0
29 47 48 -63 0
-86 102 103 112 0
30 31 44 45 0
-84 -88 0
-85 -89 0
32 33 82 83 0
5 -28 67 68 0
-87 -112 0
3 4 77 78 0
-88 -108 0
-89 -109 0
14 96 97 -106 0
-90 -106 0
-91 -107 0
-94 -96 0
-95 -97 0
14 -92 106 107 0
-100 -104 0
-101 -105 0
11 12 88 89 0
-4 5 67 68 0
-103 -112 0
